; PUSH cw_2 RETURNDATASIZE SWAP1 DUP2 => RETURNDATASIZE PUSH cw_2 RETURNDATASIZE
(set-option :produce-proofs true)
; 
(set-info :status unknown)
(declare-fun storage_t ((_ BitVec 256) (_ BitVec 256) Int (_ BitVec 256)) (_ BitVec 256))
(declare-fun w_2 () (_ BitVec 256))
(declare-fun storage_s ((_ BitVec 256) (_ BitVec 256) Int (_ BitVec 256)) (_ BitVec 256))
(declare-fun exc_halt_t (Int) Bool)
(declare-fun exc_halt_s (Int) Bool)
(declare-fun sc_t (Int) (_ BitVec 6))
(declare-fun stack_t ((_ BitVec 256) (_ BitVec 256) Int (_ BitVec 6)) (_ BitVec 256))
(declare-fun stack_s ((_ BitVec 256) (_ BitVec 256) Int (_ BitVec 6)) (_ BitVec 256))
(declare-fun sc_s (Int) (_ BitVec 6))
(declare-fun used_gas_t ((_ BitVec 256) (_ BitVec 256) Int) Int)
(declare-fun used_gas_s ((_ BitVec 256) (_ BitVec 256) Int) Int)
(assert
 (exists ((x_RETURNDATASIZE (_ BitVec 256)) )(let (($x8562 (forall ((w (_ BitVec 256)) )(let ((?x6446 (storage_t w_2 x_RETURNDATASIZE 3 w)))
 (let ((?x4118 (storage_s w_2 x_RETURNDATASIZE 4 w)))
 (= ?x4118 ?x6446))))
 ))
 (let (($x6783 (exc_halt_t 3)))
 (let (($x7172 (exc_halt_s 4)))
 (let (($x8759 (= $x7172 $x6783)))
 (let (($x9034 (forall ((n (_ BitVec 6)) )(let ((?x6438 (sc_t 3)))
 (let (($x11627 (bvsle ?x6438 n)))
 (let ((?x410 (stack_t w_2 x_RETURNDATASIZE 3 n)))
 (let ((?x2193 (stack_s w_2 x_RETURNDATASIZE 4 n)))
 (let (($x11193 (= ?x2193 ?x410)))
 (or $x11193 $x11627)))))))
 ))
 (let ((?x6438 (sc_t 3)))
 (let ((?x4305 (sc_s 4)))
 (let (($x9842 (= ?x4305 ?x6438)))
 (let ((?x4332 (used_gas_t w_2 x_RETURNDATASIZE 0)))
 (let ((?x9607 (used_gas_s w_2 x_RETURNDATASIZE 0)))
 (let (($x2578 (= ?x9607 ?x4332)))
 (let (($x11614 (forall ((w (_ BitVec 256)) )(let ((?x9220 (storage_t w_2 x_RETURNDATASIZE 0 w)))
 (let ((?x4069 (storage_s w_2 x_RETURNDATASIZE 0 w)))
 (= ?x4069 ?x9220))))
 ))
 (let (($x56 (exc_halt_t 0)))
 (let (($x57 (exc_halt_s 0)))
 (let (($x58 (= $x57 $x56)))
 (let (($x4533 (forall ((n (_ BitVec 6)) )(let ((?x5962 (stack_t w_2 x_RETURNDATASIZE 0 n)))
 (let ((?x1047 (stack_s w_2 x_RETURNDATASIZE 0 n)))
 (let (($x3635 (= ?x1047 ?x5962)))
 (let ((?x63 (sc_t 0)))
 (let (($x2525 (bvsle ?x63 n)))
 (or $x2525 $x3635)))))))
 ))
 (let ((?x63 (sc_t 0)))
 (let ((?x72 (sc_s 0)))
 (let (($x73 (= ?x72 ?x63)))
 (let (($x3071 (exc_halt_t 2)))
 (let (($x6277 (or $x3071 (not (= ((_ extract 6 6) (bvadd (_ bv1 7) (concat (_ bv0 1) (sc_t 2)))) (_ bv0 1))))))
 (let (($x6765 (= $x6783 $x6277)))
 (let (($x7560 (forall ((w (_ BitVec 256)) )(let ((?x9393 (storage_t w_2 x_RETURNDATASIZE 2 w)))
 (let ((?x6446 (storage_t w_2 x_RETURNDATASIZE 3 w)))
 (= ?x6446 ?x9393))))
 ))
 (let (($x1772 (forall ((n (_ BitVec 6)) )(let ((?x2714 (sc_t 2)))
 (let (($x9122 (bvsle ?x2714 n)))
 (or (= (stack_t w_2 x_RETURNDATASIZE 3 n) (stack_t w_2 x_RETURNDATASIZE 2 n)) $x9122))))
 ))
 (let (($x9025 (= ?x6438 (bvadd (_ bv1 6) (sc_t 2)))))
 (let (($x5819 (= (used_gas_t w_2 x_RETURNDATASIZE 3) (+ 2 (used_gas_t w_2 x_RETURNDATASIZE 2)))))
 (let (($x9219 (not (= ((_ extract 6 6) (bvadd (_ bv1 7) (concat (_ bv0 1) (sc_t 1)))) (_ bv0 1)))))
 (let (($x3508 (exc_halt_t 1)))
 (let (($x10458 (= $x3071 (or $x3508 $x9219))))
 (let (($x6966 (forall ((w (_ BitVec 256)) )(let ((?x5530 (storage_t w_2 x_RETURNDATASIZE 1 w)))
 (let ((?x9393 (storage_t w_2 x_RETURNDATASIZE 2 w)))
 (= ?x9393 ?x5530))))
 ))
 (let (($x2416 (forall ((n (_ BitVec 6)) )(let ((?x8347 (sc_t 1)))
 (let (($x8126 (bvsle ?x8347 n)))
 (or (= (stack_t w_2 x_RETURNDATASIZE 2 n) (stack_t w_2 x_RETURNDATASIZE 1 n)) $x8126))))
 ))
 (let ((?x2714 (sc_t 2)))
 (let (($x1996 (= ?x2714 (bvadd (_ bv1 6) (sc_t 1)))))
 (let ((?x800 (used_gas_t w_2 x_RETURNDATASIZE 2)))
 (let (($x3521 (= $x3508 (or $x56 (not (= ((_ extract 6 6) (bvadd (_ bv1 7) (concat (_ bv0 1) ?x63))) (_ bv0 1)))))))
 (let (($x11652 (forall ((w (_ BitVec 256)) )(let ((?x9220 (storage_t w_2 x_RETURNDATASIZE 0 w)))
 (let ((?x5530 (storage_t w_2 x_RETURNDATASIZE 1 w)))
 (= ?x5530 ?x9220))))
 ))
 (let (($x10866 (forall ((n (_ BitVec 6)) )(let ((?x63 (sc_t 0)))
 (let (($x2525 (bvsle ?x63 n)))
 (or $x2525 (= (stack_t w_2 x_RETURNDATASIZE 1 n) (stack_t w_2 x_RETURNDATASIZE 0 n))))))
 ))
 (let ((?x8347 (sc_t 1)))
 (let (($x5258 (= ?x8347 (bvadd (_ bv1 6) ?x63))))
 (let (($x5562 (not (bvsle (_ bv0 6) (bvadd (_ bv62 6) (sc_s 3))))))
 (let (($x292 (exc_halt_s 3)))
 (let (($x222 (not (= ((_ extract 6 6) (bvadd (_ bv1 7) (concat (_ bv0 1) (sc_s 3)))) (_ bv0 1)))))
 (let (($x6226 (forall ((w (_ BitVec 256)) )(let ((?x10209 (storage_s w_2 x_RETURNDATASIZE 3 w)))
 (let ((?x4118 (storage_s w_2 x_RETURNDATASIZE 4 w)))
 (= ?x4118 ?x10209))))
 ))
 (let (($x6118 (forall ((n (_ BitVec 6)) )(let ((?x275 (sc_s 3)))
 (let ((?x6337 (bvadd (_ bv62 6) ?x275)))
 (let (($x6005 (bvsle ?x6337 n)))
 (or $x6005 (= (stack_s w_2 x_RETURNDATASIZE 4 n) (stack_s w_2 x_RETURNDATASIZE 3 n)))))))
 ))
 (let (($x11051 (= ?x4305 (bvadd (_ bv1 6) (sc_s 3)))))
 (let (($x3040 (= (used_gas_s w_2 x_RETURNDATASIZE 4) (+ 3 (used_gas_s w_2 x_RETURNDATASIZE 3)))))
 (let ((?x275 (sc_s 3)))
 (let ((?x3684 (bvadd (_ bv63 6) ?x275)))
 (let ((?x7068 (stack_s w_2 x_RETURNDATASIZE 3 ?x3684)))
 (let ((?x6337 (bvadd (_ bv62 6) ?x275)))
 (let ((?x1683 (stack_s w_2 x_RETURNDATASIZE 3 ?x6337)))
 (let (($x5298 (= $x292 (or (exc_halt_s 2) (not (bvsle (_ bv0 6) (bvadd (_ bv62 6) (sc_s 2))))))))
 (let (($x6109 (forall ((w (_ BitVec 256)) )(let ((?x8794 (storage_s w_2 x_RETURNDATASIZE 2 w)))
 (let ((?x10209 (storage_s w_2 x_RETURNDATASIZE 3 w)))
 (= ?x10209 ?x8794))))
 ))
 (let (($x7320 (forall ((n (_ BitVec 6)) )(let ((?x218 (sc_s 2)))
 (let ((?x5210 (bvadd (_ bv62 6) ?x218)))
 (let (($x2138 (bvsle ?x5210 n)))
 (or (= (stack_s w_2 x_RETURNDATASIZE 3 n) (stack_s w_2 x_RETURNDATASIZE 2 n)) $x2138)))))
 ))
 (let ((?x218 (sc_s 2)))
 (let (($x7762 (= ?x275 ?x218)))
 (let ((?x5292 (used_gas_s w_2 x_RETURNDATASIZE 3)))
 (let (($x189 (exc_halt_s 1)))
 (let (($x5143 (or $x189 (not (= ((_ extract 6 6) (bvadd (_ bv1 7) (concat (_ bv0 1) (sc_s 1)))) (_ bv0 1))))))
 (let (($x247 (exc_halt_s 2)))
 (let (($x1624 (= $x247 $x5143)))
 (let (($x5646 (forall ((w (_ BitVec 256)) )(let ((?x7349 (storage_s w_2 x_RETURNDATASIZE 1 w)))
 (let ((?x8794 (storage_s w_2 x_RETURNDATASIZE 2 w)))
 (= ?x8794 ?x7349))))
 ))
 (let (($x9546 (forall ((n (_ BitVec 6)) )(let ((?x154 (sc_s 1)))
 (let (($x207 (bvsle ?x154 n)))
 (or $x207 (= (stack_s w_2 x_RETURNDATASIZE 2 n) (stack_s w_2 x_RETURNDATASIZE 1 n))))))
 ))
 (let (($x4974 (= ?x218 (bvadd (_ bv1 6) (sc_s 1)))))
 (let ((?x4031 (used_gas_s w_2 x_RETURNDATASIZE 2)))
 (let (($x9459 (= $x189 (or $x57 (not (= ((_ extract 6 6) (bvadd (_ bv1 7) (concat (_ bv0 1) ?x72))) (_ bv0 1)))))))
 (let (($x3277 (forall ((w (_ BitVec 256)) )(let ((?x4069 (storage_s w_2 x_RETURNDATASIZE 0 w)))
 (let ((?x7349 (storage_s w_2 x_RETURNDATASIZE 1 w)))
 (= ?x7349 ?x4069))))
 ))
 (let (($x7915 (forall ((n (_ BitVec 6)) )(let ((?x72 (sc_s 0)))
 (let (($x2401 (bvsle ?x72 n)))
 (or (= (stack_s w_2 x_RETURNDATASIZE 1 n) (stack_s w_2 x_RETURNDATASIZE 0 n)) $x2401))))
 ))
 (let ((?x154 (sc_s 1)))
 (let (($x10097 (= ?x154 (bvadd (_ bv1 6) ?x72))))
 (let (($x9193 (forall ((w (_ BitVec 256)) )(let ((?x4069 (storage_s w_2 x_RETURNDATASIZE 0 w)))
 (= ?x4069 (_ bv0 256))))
 ))
 (let (($x253 (= ?x9607 0)))
 (let (($x4511 (not $x57)))
 (let (($x10470 (= ?x72 (_ bv0 6))))
 (and $x10470 $x4511 $x253 $x9193 (= (stack_s w_2 x_RETURNDATASIZE 1 ?x72) w_2) (= (used_gas_s w_2 x_RETURNDATASIZE 1) (+ 3 ?x9607)) $x10097 $x7915 $x3277 $x9459 (= (stack_s w_2 x_RETURNDATASIZE 2 ?x154) x_RETURNDATASIZE) (= ?x4031 (+ 2 (used_gas_s w_2 x_RETURNDATASIZE 1))) $x4974 $x9546 $x5646 $x1624 (= ?x7068 (stack_s w_2 x_RETURNDATASIZE 2 (bvadd (_ bv62 6) ?x218))) (= ?x1683 (stack_s w_2 x_RETURNDATASIZE 2 (bvadd (_ bv63 6) ?x218))) (= ?x5292 (+ 3 ?x4031)) $x7762 $x7320 $x6109 $x5298 (= (stack_s w_2 x_RETURNDATASIZE 4 (bvadd (_ bv63 6) ?x4305)) ?x1683) (= (stack_s w_2 x_RETURNDATASIZE 4 ?x6337) ?x1683) (= (stack_s w_2 x_RETURNDATASIZE 4 ?x3684) ?x7068) $x3040 $x11051 $x6118 $x6226 (= $x7172 (or $x222 $x292 $x5562)) (= (stack_t w_2 x_RETURNDATASIZE 1 ?x63) x_RETURNDATASIZE) (= (used_gas_t w_2 x_RETURNDATASIZE 1) (+ 2 ?x4332)) $x5258 $x10866 $x11652 $x3521 (= (stack_t w_2 x_RETURNDATASIZE 2 ?x8347) w_2) (= ?x800 (+ 3 (used_gas_t w_2 x_RETURNDATASIZE 1))) $x1996 $x2416 $x6966 $x10458 (= (stack_t w_2 x_RETURNDATASIZE 3 ?x2714) x_RETURNDATASIZE) $x5819 $x9025 $x1772 $x7560 $x6765 $x73 $x4533 $x58 $x11614 $x2578 (not (and $x9842 $x9034 $x8759 $x8562))))))))))))))))))))))))))))))))))))))))))))))))))))))))))))))))))))))))))))))
 )
(check-sat)
(get-proof)
